(set-logic QF_NRA)
; benchmark generated from python API
(set-info :status unknown)
(declare-fun v1y () Real)
(declare-fun oy () Real)
(declare-fun v1x () Real)
(declare-fun R2 () Real)
(declare-fun y1y () Real)
(declare-fun xy () Real)
(declare-fun y1x () Real)
(declare-fun xx () Real)
(declare-fun rho2 () Real)
(declare-fun y2y () Real)
(declare-fun y2x () Real)
(declare-fun y3y () Real)
(declare-fun y3x () Real)
(declare-fun b1y () Real)
(declare-fun b1x () Real)
(assert
 (let ((?x284 (* (- 1.0) v1x)))
 (let ((?x55 (* (- 1.0) R2)))
 (let ((?x159 (+ (+ (+ (+ (/ 1.0 4.0) (* oy oy)) (* v1x v1x)) (* v1y v1y)) ?x55)))
 (= (+ (+ ?x159 ?x284) (* (* (- 2.0) oy) v1y)) 0.0)))))
(assert
 (= (+ (+ (/ 1.0 4.0) (* oy oy)) (* (- 1.0) R2)) 0.0))
(assert
 (let ((?x486 (* (- 1.0) rho2)))
 (let ((?x136 (* y1y y1y)))
 (let ((?x469 (+ (+ (+ (+ (* xx xx) (* xy xy)) (* y1x y1x)) ?x136) ?x486)))
 (= (+ (+ ?x469 (* (* (- 2.0) xx) y1x)) (* (* (- 2.0) xy) y1y)) 0.0)))))
(assert
 (let ((?x486 (* (- 1.0) rho2)))
 (let ((?x459 (* y2y y2y)))
 (let ((?x324 (+ (+ (+ (+ (* xx xx) (* xy xy)) (* y2x y2x)) ?x459) ?x486)))
 (= (+ (+ ?x324 (* (* (- 2.0) xx) y2x)) (* (* (- 2.0) xy) y2y)) 0.0)))))
(assert
 (let ((?x486 (* (- 1.0) rho2)))
 (let ((?x221 (* y3y y3y)))
 (let ((?x471 (+ (+ (+ (+ (* xx xx) (* xy xy)) (* y3x y3x)) ?x221) ?x486)))
 (= (+ (+ ?x471 (* (* (- 2.0) xx) y3x)) (* (* (- 2.0) xy) y3y)) 0.0)))))
(assert
 (let ((?x486 (* (- 1.0) rho2)))
 (let ((?x40 (* xy xy)))
 (let ((?x302 (+ (+ (+ (+ (* b1x b1x) (* b1y b1y)) (* xx xx)) ?x40) ?x486)))
 (= (+ (+ ?x302 (* (* (- 2.0) b1x) xx)) (* (* (- 2.0) b1y) xy)) 0.0)))))
(assert
 (let ((?x288 (+ (+ (+ (+ (- (/ 1.0 4.0)) R2) xx) (* (- 1.0) (* oy oy))) (* (- 1.0) (* xx xx)))))
 (>= (+ (+ ?x288 (* (- 1.0) (* xy xy))) (* (* 2.0 oy) xy)) 0.0)))
(assert
 (let ((?x110 (+ (+ (+ (+ (- (/ 1.0 4.0)) R2) y1x) (* (- 1.0) (* oy oy))) (* (- 1.0) (* y1x y1x)))))
 (>= (+ (+ ?x110 (* (- 1.0) (* y1y y1y))) (* (* 2.0 oy) y1y)) 0.0)))
(assert
 (let ((?x419 (+ (+ (+ (+ (- (/ 1.0 4.0)) R2) y2x) (* (- 1.0) (* oy oy))) (* (- 1.0) (* y2x y2x)))))
 (>= (+ (+ ?x419 (* (- 1.0) (* y2y y2y))) (* (* 2.0 oy) y2y)) 0.0)))
(assert
 (let ((?x456 (+ (+ (+ (+ (- (/ 1.0 4.0)) R2) y3x) (* (- 1.0) (* oy oy))) (* (- 1.0) (* y3x y3x)))))
 (>= (+ (+ ?x456 (* (- 1.0) (* y3y y3y))) (* (* 2.0 oy) y3y)) 0.0)))
(assert
 (let ((?x266 (* oy oy)))
 (let ((?x445 (* (- 1.0) ?x266)))
 (let ((?x353 (+ (+ (+ (+ (- (/ 1.0 4.0)) R2) b1x) (* (- 1.0) (* b1x b1x))) (* (- 1.0) (* b1y b1y)))))
 (>= (+ (+ ?x353 ?x445) (* (* 2.0 b1y) oy)) 0.0)))))
(assert
 (>= (+ (+ (* v1x v1x) (* v1y v1y)) (* (- 1.0) v1x)) 0.0))
(assert
 (>= v1x 0.0))
(assert
 (>= (+ 1.0 (* (- 1.0) v1x)) 0.0))
(assert
 (> R2 0.0))
(assert
 (> rho2 0.0))
(assert
 (let ((?x427 (* (- 1.0) v1y)))
 (let ((?x152 (* ?x427 xy)))
 (> ?x152 0.0))))
(assert
 (let ((?x185 (+ (+ (* v1y v1y) (* (* (- 1.0) v1y) xy)) (* (* (- 1.0) xx) (* v1y v1y)))))
 (> (+ ?x185 (* (* v1x v1y) xy)) 0.0)))
(assert
 (> (+ (* xx (* v1y v1y)) (* (* (* (- 1.0) v1x) v1y) xy)) 0.0))
(assert
 (let ((?x427 (* (- 1.0) v1y)))
 (let ((?x376 (* ?x427 y1y)))
 (> ?x376 0.0))))
(assert
 (let ((?x474 (+ (+ (* v1y v1y) (* (* (- 1.0) v1y) y1y)) (* (* (- 1.0) y1x) (* v1y v1y)))))
 (> (+ ?x474 (* (* v1x v1y) y1y)) 0.0)))
(assert
 (> (+ (* y1x (* v1y v1y)) (* (* (* (- 1.0) v1x) v1y) y1y)) 0.0))
(assert
 (let ((?x427 (* (- 1.0) v1y)))
 (let ((?x151 (* ?x427 y2y)))
 (> ?x151 0.0))))
(assert
 (let ((?x453 (+ (+ (* v1y v1y) (* (* (- 1.0) v1y) y2y)) (* (* (- 1.0) y2x) (* v1y v1y)))))
 (> (+ ?x453 (* (* v1x v1y) y2y)) 0.0)))
(assert
 (> (+ (* y2x (* v1y v1y)) (* (* (* (- 1.0) v1x) v1y) y2y)) 0.0))
(assert
 (let ((?x427 (* (- 1.0) v1y)))
 (let ((?x42 (* ?x427 y3y)))
 (> ?x42 0.0))))
(assert
 (let ((?x106 (+ (+ (* v1y v1y) (* (* (- 1.0) v1y) y3y)) (* (* (- 1.0) y3x) (* v1y v1y)))))
 (> (+ ?x106 (* (* v1x v1y) y3y)) 0.0)))
(assert
 (> (+ (* y3x (* v1y v1y)) (* (* (* (- 1.0) v1x) v1y) y3y)) 0.0))
(assert
 (> (* b1y v1y) 0.0))
(assert
 (let ((?x464 (* b1y v1x)))
 (let ((?x95 (* ?x464 v1y)))
 (let ((?x177 (+ (+ (* v1y v1y) (* (* (- 1.0) b1x) (* v1y v1y))) (* (* (- 1.0) b1y) v1y))))
 (> (+ ?x177 ?x95) 0.0)))))
(assert
 (> (+ (* (* (- 1.0) b1x) (* v1y v1y)) (* (* b1y v1x) v1y)) 0.0))
(assert
 (> (+ (* y1x y2y) (* (* (- 1.0) y1y) y2x)) 0.0))
(assert
 (> (+ (* y1x y3y) (* (* (- 1.0) y1y) y3x)) 0.0))
(assert
 (> (+ (* xy y1x) (* (* (- 1.0) xx) y1y)) 0.0))
(assert
 (let ((?x310 (* (- 1.0) y1y)))
 (> ?x310 0.0)))
(assert
 (> (+ (* v1y y1x) (* (* (- 1.0) v1x) y1y)) 0.0))
(assert
 (> (+ (* b1y y1x) (* (* (- 1.0) b1x) y1y)) 0.0))
(assert
 (> (+ (* y2x y3y) (* (* (- 1.0) y2y) y3x)) 0.0))
(assert
 (> (+ (* xy y2x) (* (* (- 1.0) xx) y2y)) 0.0))
(assert
 (let ((?x431 (* (- 1.0) y2y)))
 (> ?x431 0.0)))
(assert
 (> (+ (* v1y y2x) (* (* (- 1.0) v1x) y2y)) 0.0))
(assert
 (> (+ (* b1y y2x) (* (* (- 1.0) b1x) y2y)) 0.0))
(assert
 (> (+ (* xy y3x) (* (* (- 1.0) xx) y3y)) 0.0))
(assert
 (let ((?x426 (* (- 1.0) y3y)))
 (> ?x426 0.0)))
(assert
 (> (+ (* v1y y3x) (* (* (- 1.0) v1x) y3y)) 0.0))
(assert
 (> (+ (* b1y y3x) (* (* (- 1.0) b1x) y3y)) 0.0))
(assert
 (let ((?x410 (* (- 1.0) xy)))
 (> ?x410 0.0)))
(assert
 (> (+ (* v1y xx) (* (* (- 1.0) v1x) xy)) 0.0))
(assert
 (> (+ (* b1y xx) (* (* (- 1.0) b1x) xy)) 0.0))
(assert
 (> v1y 0.0))
(assert
 (> b1y 0.0))
(assert
 (> (+ (* b1y v1x) (* (* (- 1.0) b1x) v1y)) 0.0))
(assert
 (let ((?x431 (* (- 1.0) y2y)))
 (let ((?x176 (* ?x431 y3x)))
 (let ((?x310 (* (- 1.0) y1y)))
 (let ((?x188 (* ?x310 y2x)))
 (let ((?x67 (+ (+ (+ (* y1x y2y) (* y1y y3x)) (* y2x y3y)) (* (* (- 1.0) y1x) y3y))))
 (> (+ (+ ?x67 ?x188) ?x176) 0.0)))))))
(assert
 (let ((?x310 (* (- 1.0) y1y)))
 (let ((?x188 (* ?x310 y2x)))
 (let ((?x410 (* (- 1.0) xy)))
 (let ((?x44 (* ?x410 y1x)))
 (let ((?x314 (* (- 1.0) xx)))
 (let ((?x198 (* ?x314 y2y)))
 (let ((?x85 (+ (+ (+ (+ (* xx y1y) (* xy y2x)) (* y1x y2y)) ?x198) ?x44)))
 (> (+ ?x85 ?x188) 0.0)))))))))
(assert
 (let ((?x310 (* (- 1.0) y1y)))
 (let ((?x188 (* ?x310 y2x)))
 (> (+ (+ (+ y1y (* (- 1.0) y2y)) (* y1x y2y)) ?x188) 0.0))))
(assert
 (let ((?x310 (* (- 1.0) y1y)))
 (let ((?x188 (* ?x310 y2x)))
 (let ((?x427 (* (- 1.0) v1y)))
 (let ((?x399 (* ?x427 y1x)))
 (let ((?x284 (* (- 1.0) v1x)))
 (let ((?x409 (* ?x284 y2y)))
 (let ((?x349 (+ (+ (+ (+ (* v1x y1y) (* v1y y2x)) (* y1x y2y)) ?x409) ?x399)))
 (> (+ ?x349 ?x188) 0.0)))))))))
(assert
 (let ((?x310 (* (- 1.0) y1y)))
 (let ((?x188 (* ?x310 y2x)))
 (let ((?x243 (* (- 1.0) b1y)))
 (let ((?x237 (* ?x243 y1x)))
 (let ((?x371 (* (- 1.0) b1x)))
 (let ((?x446 (* ?x371 y2y)))
 (let ((?x297 (+ (+ (+ (+ (* b1x y1y) (* b1y y2x)) (* y1x y2y)) ?x446) ?x237)))
 (> (+ ?x297 ?x188) 0.0)))))))))
(assert
 (let ((?x310 (* (- 1.0) y1y)))
 (let ((?x178 (* ?x310 y3x)))
 (let ((?x410 (* (- 1.0) xy)))
 (let ((?x44 (* ?x410 y1x)))
 (let ((?x314 (* (- 1.0) xx)))
 (let ((?x143 (* ?x314 y3y)))
 (let ((?x91 (+ (+ (+ (+ (* xx y1y) (* xy y3x)) (* y1x y3y)) ?x143) ?x44)))
 (> (+ ?x91 ?x178) 0.0)))))))))
(assert
 (let ((?x310 (* (- 1.0) y1y)))
 (let ((?x178 (* ?x310 y3x)))
 (> (+ (+ (+ y1y (* (- 1.0) y3y)) (* y1x y3y)) ?x178) 0.0))))
(assert
 (let ((?x310 (* (- 1.0) y1y)))
 (let ((?x178 (* ?x310 y3x)))
 (let ((?x427 (* (- 1.0) v1y)))
 (let ((?x399 (* ?x427 y1x)))
 (let ((?x284 (* (- 1.0) v1x)))
 (let ((?x337 (* ?x284 y3y)))
 (let ((?x86 (+ (+ (+ (+ (* v1x y1y) (* v1y y3x)) (* y1x y3y)) ?x337) ?x399)))
 (> (+ ?x86 ?x178) 0.0)))))))))
(assert
 (let ((?x310 (* (- 1.0) y1y)))
 (let ((?x178 (* ?x310 y3x)))
 (let ((?x243 (* (- 1.0) b1y)))
 (let ((?x237 (* ?x243 y1x)))
 (let ((?x371 (* (- 1.0) b1x)))
 (let ((?x319 (* ?x371 y3y)))
 (let ((?x480 (+ (+ (+ (+ (* b1x y1y) (* b1y y3x)) (* y1x y3y)) ?x319) ?x237)))
 (> (+ ?x480 ?x178) 0.0)))))))))
(assert
 (let ((?x314 (* (- 1.0) xx)))
 (let ((?x167 (* ?x314 y1y)))
 (> (+ (+ (+ y1y (* (- 1.0) xy)) (* xy y1x)) ?x167) 0.0))))
(assert
 (let ((?x314 (* (- 1.0) xx)))
 (let ((?x167 (* ?x314 y1y)))
 (let ((?x427 (* (- 1.0) v1y)))
 (let ((?x399 (* ?x427 y1x)))
 (let ((?x284 (* (- 1.0) v1x)))
 (let ((?x114 (* ?x284 xy)))
 (let ((?x128 (+ (+ (+ (+ (* v1x y1y) (* v1y xx)) (* xy y1x)) ?x114) ?x399)))
 (> (+ ?x128 ?x167) 0.0)))))))))
(assert
 (let ((?x314 (* (- 1.0) xx)))
 (let ((?x167 (* ?x314 y1y)))
 (let ((?x243 (* (- 1.0) b1y)))
 (let ((?x237 (* ?x243 y1x)))
 (let ((?x371 (* (- 1.0) b1x)))
 (let ((?x104 (* ?x371 xy)))
 (let ((?x65 (+ (+ (+ (+ (* b1x y1y) (* b1y xx)) (* xy y1x)) ?x104) ?x237)))
 (> (+ ?x65 ?x167) 0.0)))))))))
(assert
 (let ((?x427 (* (- 1.0) v1y)))
 (let ((?x399 (* ?x427 y1x)))
 (> (+ (+ (+ v1y (* (- 1.0) y1y)) (* v1x y1y)) ?x399) 0.0))))
(assert
 (let ((?x243 (* (- 1.0) b1y)))
 (let ((?x237 (* ?x243 y1x)))
 (> (+ (+ (+ b1y (* (- 1.0) y1y)) (* b1x y1y)) ?x237) 0.0))))
(assert
 (let ((?x284 (* (- 1.0) v1x)))
 (let ((?x242 (* ?x284 y1y)))
 (let ((?x243 (* (- 1.0) b1y)))
 (let ((?x237 (* ?x243 y1x)))
 (let ((?x371 (* (- 1.0) b1x)))
 (let ((?x360 (* ?x371 v1y)))
 (let ((?x814 (+ (+ (+ (+ (* b1x y1y) (* b1y v1x)) (* v1y y1x)) ?x360) ?x237)))
 (> (+ ?x814 ?x242) 0.0)))))))))
(assert
 (let ((?x431 (* (- 1.0) y2y)))
 (let ((?x176 (* ?x431 y3x)))
 (let ((?x314 (* (- 1.0) xx)))
 (let ((?x143 (* ?x314 y3y)))
 (let ((?x489 (+ (+ (+ (+ (* xx y2y) (* xy y3x)) (* y2x y3y)) ?x143) (* (* (- 1.0) xy) y2x))))
 (> (+ ?x489 ?x176) 0.0)))))))
(assert
 (let ((?x431 (* (- 1.0) y2y)))
 (let ((?x176 (* ?x431 y3x)))
 (> (+ (+ (+ y2y (* (- 1.0) y3y)) (* y2x y3y)) ?x176) 0.0))))
(assert
 (let ((?x431 (* (- 1.0) y2y)))
 (let ((?x176 (* ?x431 y3x)))
 (let ((?x427 (* (- 1.0) v1y)))
 (let ((?x72 (* ?x427 y2x)))
 (let ((?x284 (* (- 1.0) v1x)))
 (let ((?x337 (* ?x284 y3y)))
 (let ((?x155 (+ (+ (+ (+ (* v1x y2y) (* v1y y3x)) (* y2x y3y)) ?x337) ?x72)))
 (> (+ ?x155 ?x176) 0.0)))))))))
(assert
 (let ((?x431 (* (- 1.0) y2y)))
 (let ((?x176 (* ?x431 y3x)))
 (let ((?x243 (* (- 1.0) b1y)))
 (let ((?x81 (* ?x243 y2x)))
 (let ((?x371 (* (- 1.0) b1x)))
 (let ((?x319 (* ?x371 y3y)))
 (let ((?x389 (+ (+ (+ (+ (* b1x y2y) (* b1y y3x)) (* y2x y3y)) ?x319) ?x81)))
 (> (+ ?x389 ?x176) 0.0)))))))))
(assert
 (let ((?x314 (* (- 1.0) xx)))
 (let ((?x198 (* ?x314 y2y)))
 (> (+ (+ (+ y2y (* (- 1.0) xy)) (* xy y2x)) ?x198) 0.0))))
(assert
 (let ((?x314 (* (- 1.0) xx)))
 (let ((?x198 (* ?x314 y2y)))
 (let ((?x427 (* (- 1.0) v1y)))
 (let ((?x72 (* ?x427 y2x)))
 (let ((?x284 (* (- 1.0) v1x)))
 (let ((?x114 (* ?x284 xy)))
 (let ((?x379 (+ (+ (+ (+ (* v1x y2y) (* v1y xx)) (* xy y2x)) ?x114) ?x72)))
 (> (+ ?x379 ?x198) 0.0)))))))))
(assert
 (let ((?x314 (* (- 1.0) xx)))
 (let ((?x198 (* ?x314 y2y)))
 (let ((?x243 (* (- 1.0) b1y)))
 (let ((?x81 (* ?x243 y2x)))
 (let ((?x371 (* (- 1.0) b1x)))
 (let ((?x104 (* ?x371 xy)))
 (let ((?x64 (+ (+ (+ (+ (* b1x y2y) (* b1y xx)) (* xy y2x)) ?x104) ?x81)))
 (> (+ ?x64 ?x198) 0.0)))))))))
(assert
 (let ((?x427 (* (- 1.0) v1y)))
 (let ((?x72 (* ?x427 y2x)))
 (> (+ (+ (+ v1y (* (- 1.0) y2y)) (* v1x y2y)) ?x72) 0.0))))
(assert
 (let ((?x243 (* (- 1.0) b1y)))
 (let ((?x81 (* ?x243 y2x)))
 (> (+ (+ (+ b1y (* (- 1.0) y2y)) (* b1x y2y)) ?x81) 0.0))))
(assert
 (let ((?x284 (* (- 1.0) v1x)))
 (let ((?x409 (* ?x284 y2y)))
 (let ((?x243 (* (- 1.0) b1y)))
 (let ((?x81 (* ?x243 y2x)))
 (let ((?x371 (* (- 1.0) b1x)))
 (let ((?x360 (* ?x371 v1y)))
 (let ((?x164 (+ (+ (+ (+ (* b1x y2y) (* b1y v1x)) (* v1y y2x)) ?x360) ?x81)))
 (> (+ ?x164 ?x409) 0.0)))))))))
(assert
 (let ((?x314 (* (- 1.0) xx)))
 (let ((?x143 (* ?x314 y3y)))
 (> (+ (+ (+ y3y (* (- 1.0) xy)) (* xy y3x)) ?x143) 0.0))))
(assert
 (let ((?x314 (* (- 1.0) xx)))
 (let ((?x143 (* ?x314 y3y)))
 (let ((?x427 (* (- 1.0) v1y)))
 (let ((?x400 (* ?x427 y3x)))
 (let ((?x284 (* (- 1.0) v1x)))
 (let ((?x114 (* ?x284 xy)))
 (let ((?x192 (+ (+ (+ (+ (* v1x y3y) (* v1y xx)) (* xy y3x)) ?x114) ?x400)))
 (> (+ ?x192 ?x143) 0.0)))))))))
(assert
 (let ((?x314 (* (- 1.0) xx)))
 (let ((?x143 (* ?x314 y3y)))
 (let ((?x243 (* (- 1.0) b1y)))
 (let ((?x87 (* ?x243 y3x)))
 (let ((?x371 (* (- 1.0) b1x)))
 (let ((?x104 (* ?x371 xy)))
 (let ((?x140 (+ (+ (+ (+ (* b1x y3y) (* b1y xx)) (* xy y3x)) ?x104) ?x87)))
 (> (+ ?x140 ?x143) 0.0)))))))))
(assert
 (let ((?x427 (* (- 1.0) v1y)))
 (let ((?x400 (* ?x427 y3x)))
 (> (+ (+ (+ v1y (* (- 1.0) y3y)) (* v1x y3y)) ?x400) 0.0))))
(assert
 (let ((?x243 (* (- 1.0) b1y)))
 (let ((?x87 (* ?x243 y3x)))
 (> (+ (+ (+ b1y (* (- 1.0) y3y)) (* b1x y3y)) ?x87) 0.0))))
(assert
 (let ((?x284 (* (- 1.0) v1x)))
 (let ((?x337 (* ?x284 y3y)))
 (let ((?x243 (* (- 1.0) b1y)))
 (let ((?x87 (* ?x243 y3x)))
 (let ((?x371 (* (- 1.0) b1x)))
 (let ((?x360 (* ?x371 v1y)))
 (let ((?x26 (+ (+ (+ (+ (* b1x y3y) (* b1y v1x)) (* v1y y3x)) ?x360) ?x87)))
 (> (+ ?x26 ?x337) 0.0)))))))))
(assert
 (let ((?x394 (+ (+ (+ v1y (* (- 1.0) xy)) (* v1x xy)) (* (* (- 1.0) v1y) xx))))
 (> ?x394 0.0)))
(assert
 (let ((?x243 (* (- 1.0) b1y)))
 (let ((?x145 (* ?x243 xx)))
 (> (+ (+ (+ b1y (* (- 1.0) xy)) (* b1x xy)) ?x145) 0.0))))
(assert
 (let ((?x284 (* (- 1.0) v1x)))
 (let ((?x114 (* ?x284 xy)))
 (let ((?x243 (* (- 1.0) b1y)))
 (let ((?x145 (* ?x243 xx)))
 (let ((?x371 (* (- 1.0) b1x)))
 (let ((?x360 (* ?x371 v1y)))
 (let ((?x442 (+ (+ (+ (+ (* b1x xy) (* b1y v1x)) (* v1y xx)) ?x360) ?x145)))
 (> (+ ?x442 ?x114) 0.0)))))))))
(assert
 (let ((?x371 (* (- 1.0) b1x)))
(let ((?x360 (* ?x371 v1y)))
(> (+ (+ (+ v1y (* (- 1.0) b1y)) (* b1y v1x)) ?x360) 0.0))))
(check-sat)
